* SDPA sparse format data
* File name = Bst_e05.dat-s
* mDim =  40, nBlock = 15
* size of bVect = 1 *  40
* size of sparseMatrix =  336 * 5
 40
 15
-44 -34  4  3  5  3  4  3  3  3  3  4  3  3  3 
   0.4368000000    1.0000000000    0.2758620690    0.0000000000    0.0000000000    0.0000000000    0.0000000000    0.0000000000    0.0000000000    0.0000000000    0.0000000000    0.0000000000    0.0000000000    0.0000000000    0.0000000000    0.0000000000    0.0000000000    0.0000000000    0.0000000000    0.0000000000    0.0000000000    0.0000000000    0.0000000000    0.0000000000    0.0000000000    0.0000000000    0.0000000000    0.0000000000    0.0000000000    0.0000000000    0.0000000000    0.0000000000    0.0000000000    0.0000000000    0.0000000000    0.0000000000    0.0000000000    0.0000000000    0.0000000000    0.0000000000 
  1   1   1   1   -1.0000000000
  4   1   1   1    0.0526293630
  7   1   1   1    1.0000000000
  6   1   2   2   -1.0000000000
  7   1   2   2    0.0526293630
 17   1   2   2    1.0000000000
  7   1   3   3   -1.0000000000
 13   1   3   3    0.0526293630
 18   1   3   3    1.0000000000
 16   1   4   4   -1.0000000000
 17   1   4   4    0.0526293630
 32   1   4   4    1.0000000000
 17   1   5   5   -1.0000000000
 18   1   5   5    0.0526293630
 33   1   5   5    1.0000000000
 18   1   6   6   -1.0000000000
 28   1   6   6    0.0526293630
 34   1   6   6    1.0000000000
  2   1   7   7   -1.0000000000
  4   1   7   7   -0.0229885057
  5   1   7   7    0.0344827586
 10   1   7   7    1.0000000000
  8   1   8   8   -1.0000000000
  9   1   8   8   -0.0229885057
 10   1   8   8    0.0344827586
 21   1   8   8    1.0000000000
  9   1   9   9   -1.0000000000
 13   1   9   9   -0.0229885057
 14   1   9   9    0.0344827586
 23   1   9   9    1.0000000000
 10   1  10  10   -1.0000000000
 14   1  10  10   -0.0229885057
 15   1  10  10    0.0344827586
 24   1  10  10    1.0000000000
 19   1  11  11   -1.0000000000
 20   1  11  11   -0.0229885057
 21   1  11  11    0.0344827586
 35   1  11  11    1.0000000000
 20   1  12  12   -1.0000000000
 22   1  12  12   -0.0229885057
 23   1  12  12    0.0344827586
 36   1  12  12    1.0000000000
 21   1  13  13   -1.0000000000
 23   1  13  13   -0.0229885057
 24   1  13  13    0.0344827586
 37   1  13  13    1.0000000000
 22   1  14  14   -1.0000000000
 28   1  14  14   -0.0229885057
 29   1  14  14    0.0344827586
 38   1  14  14    1.0000000000
 23   1  15  15   -1.0000000000
 29   1  15  15   -0.0229885057
 30   1  15  15    0.0344827586
 39   1  15  15    1.0000000000
 24   1  16  16   -1.0000000000
 30   1  16  16   -0.0229885057
 31   1  16  16    0.0344827586
 40   1  16  16    1.0000000000
  0   1  17  17   -1.0000000000
  3   1  17  17   -1.0000000000
  5   1  17  17   -0.7500000000
  3   1  18  18    1.0000000000
 11   1  18  18   -1.0000000000
 12   1  18  18   -0.7500000000
  5   1  19  19    1.0000000000
 12   1  19  19   -1.0000000000
 15   1  19  19   -0.7500000000
 11   1  20  20    1.0000000000
 25   1  20  20   -1.0000000000
 26   1  20  20   -0.7500000000
 12   1  21  21    1.0000000000
 26   1  21  21   -1.0000000000
 27   1  21  21   -0.7500000000
 15   1  22  22    1.0000000000
 27   1  22  22   -1.0000000000
 31   1  22  22   -0.7500000000
  1   1  23  23    1.0000000000
  4   1  23  23   -0.0526293630
  7   1  23  23   -1.0000000000
  6   1  24  24    1.0000000000
  7   1  24  24   -0.0526293630
 17   1  24  24   -1.0000000000
  7   1  25  25    1.0000000000
 13   1  25  25   -0.0526293630
 18   1  25  25   -1.0000000000
 16   1  26  26    1.0000000000
 17   1  26  26   -0.0526293630
 32   1  26  26   -1.0000000000
 17   1  27  27    1.0000000000
 18   1  27  27   -0.0526293630
 33   1  27  27   -1.0000000000
 18   1  28  28    1.0000000000
 28   1  28  28   -0.0526293630
 34   1  28  28   -1.0000000000
  2   1  29  29    1.0000000000
  4   1  29  29    0.0229885057
  5   1  29  29   -0.0344827586
 10   1  29  29   -1.0000000000
  8   1  30  30    1.0000000000
  9   1  30  30    0.0229885057
 10   1  30  30   -0.0344827586
 21   1  30  30   -1.0000000000
  9   1  31  31    1.0000000000
 13   1  31  31    0.0229885057
 14   1  31  31   -0.0344827586
 23   1  31  31   -1.0000000000
 10   1  32  32    1.0000000000
 14   1  32  32    0.0229885057
 15   1  32  32   -0.0344827586
 24   1  32  32   -1.0000000000
 19   1  33  33    1.0000000000
 20   1  33  33    0.0229885057
 21   1  33  33   -0.0344827586
 35   1  33  33   -1.0000000000
 20   1  34  34    1.0000000000
 22   1  34  34    0.0229885057
 23   1  34  34   -0.0344827586
 36   1  34  34   -1.0000000000
 21   1  35  35    1.0000000000
 23   1  35  35    0.0229885057
 24   1  35  35   -0.0344827586
 37   1  35  35   -1.0000000000
 22   1  36  36    1.0000000000
 28   1  36  36    0.0229885057
 29   1  36  36   -0.0344827586
 38   1  36  36   -1.0000000000
 23   1  37  37    1.0000000000
 29   1  37  37    0.0229885057
 30   1  37  37   -0.0344827586
 39   1  37  37   -1.0000000000
 24   1  38  38    1.0000000000
 30   1  38  38    0.0229885057
 31   1  38  38   -0.0344827586
 40   1  38  38   -1.0000000000
  0   1  39  39    1.0000000000
  3   1  39  39    1.0000000000
  5   1  39  39    0.7500000000
  3   1  40  40   -1.0000000000
 11   1  40  40    1.0000000000
 12   1  40  40    0.7500000000
  5   1  41  41   -1.0000000000
 12   1  41  41    1.0000000000
 15   1  41  41    0.7500000000
 11   1  42  42   -1.0000000000
 25   1  42  42    1.0000000000
 26   1  42  42    0.7500000000
 12   1  43  43   -1.0000000000
 26   1  43  43    1.0000000000
 27   1  43  43    0.7500000000
 15   1  44  44   -1.0000000000
 27   1  44  44    1.0000000000
 31   1  44  44    0.7500000000
  7   2   1   1    1.0000000000
  9   2   2   2    1.0000000000
 10   2   3   3    1.0000000000
 12   2   4   4    1.0000000000
 14   2   5   5    1.0000000000
 20   2   6   6    1.0000000000
 21   2   7   7    1.0000000000
 23   2   8   8    1.0000000000
 29   2   9   9    1.0000000000
 30   2  10  10    1.0000000000
 32   2  11  11    1.0000000000
 34   2  12  12    1.0000000000
 35   2  13  13    1.0000000000
 36   2  14  14    1.0000000000
 38   2  15  15    1.0000000000
 39   2  16  16    1.0000000000
 40   2  17  17    1.0000000000
  6   2  18  18   -1.0000000000
  0   2  18  18   -1.0000000000
  8   2  19  19   -1.0000000000
  0   2  19  19   -1.0000000000
 11   2  20  20   -1.0000000000
  0   2  20  20   -1.0000000000
 13   2  21  21   -1.0000000000
  0   2  21  21   -1.0000000000
 15   2  22  22   -1.0000000000
  0   2  22  22   -1.0000000000
 20   2  23  23   -1.0000000000
  0   2  23  23   -1.0000000000
 29   2  24  24   -1.0000000000
  0   2  24  24   -1.0000000000
 30   2  25  25   -1.0000000000
  0   2  25  25   -1.0000000000
 32   2  26  26   -1.0000000000
  0   2  26  26   -1.0000000000
 33   2  27  27   -1.0000000000
  0   2  27  27   -1.0000000000
 34   2  28  28   -1.0000000000
  0   2  28  28   -1.0000000000
 35   2  29  29   -1.0000000000
  0   2  29  29   -1.0000000000
 36   2  30  30   -1.0000000000
  0   2  30  30   -1.0000000000
 37   2  31  31   -1.0000000000
  0   2  31  31   -1.0000000000
 38   2  32  32   -1.0000000000
  0   2  32  32   -1.0000000000
 39   2  33  33   -1.0000000000
  0   2  33  33   -1.0000000000
 40   2  34  34   -1.0000000000
  0   2  34  34   -1.0000000000
  0   3   1   1   -1.0000000000
  1   3   1   2    1.0000000000
  4   3   1   3    1.0000000000
  7   3   1   4    1.0000000000
  6   3   2   2    1.0000000000
  7   3   2   3    1.0000000000
 17   3   2   4    1.0000000000
 13   3   3   3    1.0000000000
 18   3   3   4    1.0000000000
 33   3   4   4    1.0000000000
  0   4   1   1   -1.0000000000
  3   4   1   2    1.0000000000
  5   4   1   3    1.0000000000
 11   4   2   2    1.0000000000
 12   4   2   3    1.0000000000
 15   4   3   3    1.0000000000
  0   5   1   1   -1.0000000000
  2   5   1   2    1.0000000000
  4   5   1   3    1.0000000000
  5   5   1   4    1.0000000000
 10   5   1   5    1.0000000000
  8   5   2   2    1.0000000000
  9   5   2   3    1.0000000000
 10   5   2   4    1.0000000000
 21   5   2   5    1.0000000000
 13   5   3   3    1.0000000000
 14   5   3   4    1.0000000000
 23   5   3   5    1.0000000000
 15   5   4   4    1.0000000000
 24   5   4   5    1.0000000000
 37   5   5   5    1.0000000000
  1   6   1   1    1.0000000000
  6   6   1   2    1.0000000000
  7   6   1   3    1.0000000000
 16   6   2   2    1.0000000000
 17   6   2   3    1.0000000000
 18   6   3   3    1.0000000000
  2   7   1   1    1.0000000000
  8   7   1   2    1.0000000000
  9   7   1   3    1.0000000000
 10   7   1   4    1.0000000000
 19   7   2   2    1.0000000000
 20   7   2   3    1.0000000000
 21   7   2   4    1.0000000000
 22   7   3   3    1.0000000000
 23   7   3   4    1.0000000000
 24   7   4   4    1.0000000000
  3   8   1   1    1.0000000000
 11   8   1   2    1.0000000000
 12   8   1   3    1.0000000000
 25   8   2   2    1.0000000000
 26   8   2   3    1.0000000000
 27   8   3   3    1.0000000000
  4   9   1   1    1.0000000000
  7   9   1   2    1.0000000000
 13   9   1   3    1.0000000000
 17   9   2   2    1.0000000000
 18   9   2   3    1.0000000000
 28   9   3   3    1.0000000000
  5  10   1   1    1.0000000000
 12  10   1   2    1.0000000000
 15  10   1   3    1.0000000000
 26  10   2   2    1.0000000000
 27  10   2   3    1.0000000000
 31  10   3   3    1.0000000000
  0  11   1   1   -1.0000000000
  1  11   1   1   -1.0000000000
  1  11   1   2    1.0000000000
  6  11   1   2   -1.0000000000
  4  11   1   3    1.0000000000
  7  11   1   3   -1.0000000000
  6  11   2   2    1.0000000000
 16  11   2   2   -1.0000000000
  7  11   2   3    1.0000000000
 17  11   2   3   -1.0000000000
 13  11   3   3    1.0000000000
 18  11   3   3   -1.0000000000
  0  12   1   1   -1.0000000000
  2  12   1   1   -1.0000000000
  2  12   1   2    1.0000000000
  8  12   1   2   -1.0000000000
  4  12   1   3    1.0000000000
  9  12   1   3   -1.0000000000
  5  12   1   4    1.0000000000
 10  12   1   4   -1.0000000000
  8  12   2   2    1.0000000000
 19  12   2   2   -1.0000000000
  9  12   2   3    1.0000000000
 20  12   2   3   -1.0000000000
 10  12   2   4    1.0000000000
 21  12   2   4   -1.0000000000
 13  12   3   3    1.0000000000
 22  12   3   3   -1.0000000000
 14  12   3   4    1.0000000000
 23  12   3   4   -1.0000000000
 15  12   4   4    1.0000000000
 24  12   4   4   -1.0000000000
  0  13   1   1   -1.0000000000
  3  13   1   1   -1.0000000000
  3  13   1   2    1.0000000000
 11  13   1   2   -1.0000000000
  5  13   1   3    1.0000000000
 12  13   1   3   -1.0000000000
 11  13   2   2    1.0000000000
 25  13   2   2   -1.0000000000
 12  13   2   3    1.0000000000
 26  13   2   3   -1.0000000000
 15  13   3   3    1.0000000000
 27  13   3   3   -1.0000000000
  0  14   1   1   -1.0000000000
  4  14   1   1   -1.0000000000
  1  14   1   2    1.0000000000
  7  14   1   2   -1.0000000000
  4  14   1   3    1.0000000000
 13  14   1   3   -1.0000000000
  6  14   2   2    1.0000000000
 17  14   2   2   -1.0000000000
  7  14   2   3    1.0000000000
 18  14   2   3   -1.0000000000
 13  14   3   3    1.0000000000
 28  14   3   3   -1.0000000000
  0  15   1   1   -1.0000000000
  5  15   1   1   -1.0000000000
  3  15   1   2    1.0000000000
 12  15   1   2   -1.0000000000
  5  15   1   3    1.0000000000
 15  15   1   3   -1.0000000000
 11  15   2   2    1.0000000000
 26  15   2   2   -1.0000000000
 12  15   2   3    1.0000000000
 27  15   2   3   -1.0000000000
 15  15   3   3    1.0000000000
 31  15   3   3   -1.0000000000
